# Solution for model r5_t36_m8_7
# Finished Task: 33 / 36
# Makespan: 688.0, Total Distance: 1693.0, Total Time: 1.2614
# R O S F
0 0 19 0.0 0.0
1 1 12 0.0 0.0
2 2 15 0.0 0.0
3 3 20 0.0 0.0
4 4 36 0.0 0.0
5 3 7 424.0 450.0
6 2 39 305.0 327.0
7 3 27 477.0 508.0
8 0 13 362.0 382.0
9 0 24 487.0 525.0
10 1 14 397.0 436.0
11 4 21 461.0 498.0
12 1 23 26.0 61.0
13 0 9 421.0 449.0
14 1 22 518.0 556.0
15 2 6 269.0 293.0
16 2 30 536.0 566.0
17 -1 -1 -1.0 -1.0
18 3 28 327.0 350.0
19 0 8 179.0 206.0
20 3 25 231.0 270.0
21 4 -1 608.0 647.0
22 1 -1 649.0 688.0
23 1 34 164.0 202.0
24 0 -1 549.0 575.0
25 3 18 277.0 298.0
26 4 38 326.0 346.0
27 3 -1 619.0 640.0
28 3 5 384.0 415.0
29 -1 -1 -1.0 -1.0
30 2 -1 621.0 654.0
31 4 11 425.0 445.0
32 4 35 153.0 192.0
33 2 37 370.0 396.0
34 1 10 251.0 290.0
35 4 26 251.0 272.0
36 4 32 82.0 112.0
37 2 16 414.0 447.0
38 4 31 359.0 397.0
39 2 33 335.0 359.0
40 -1 -1 -1.0 -1.0
